
Gurobi 11.0.3 (linux64) logging started Sun Nov 24 16:58:16 2024

Set parameter LogFile to value "/home/yihong/Coding/OR_SUC/SUC_results_bigM100000_thread4/case24_ieee_rts_theta0.5_epsilon0.05_gurobi_seed1250000_num_gen100_N_WDR100_load_scaling_factor1_exact_T20quadra_cost.txt"
Set parameter TimeLimit to value 3600
Gurobi Optimizer version 11.0.3 build v11.0.3rc0 (linux64 - "Ubuntu 20.04.6 LTS")

CPU model: AMD EPYC 7532 32-Core Processor, instruction set [SSE2|AVX|AVX2]
Thread count: 64 physical cores, 128 logical processors, using up to 4 threads

Optimize a model with 47983 rows, 25001 columns and 1104482 nonzeros
Model fingerprint: 0x1642a26c
Model has 2000 quadratic constraints
Variable types: 22901 continuous, 2100 integer (2100 binary)
Coefficient statistics:
  Matrix range     [3e-04, 1e+05]
  QMatrix range    [2e-03, 8e-03]
  QLMatrix range   [8e-02, 6e+01]
  Objective range  [1e+00, 1e+00]
  Bounds range     [1e+00, 1e+00]
  RHS range        [1e+00, 1e+05]
Presolve removed 39054 rows and 10543 columns
Presolve time: 0.36s
Presolved: 8929 rows, 14458 columns, 49961 nonzeros
Presolved model has 2000 quadratic constraint(s)
Variable types: 12372 continuous, 2086 integer (2086 binary)

Root relaxation: objective 3.816815e+04, 7218 iterations, 0.29 seconds (0.27 work units)

    Nodes    |    Current Node    |     Objective Bounds      |     Work
 Expl Unexpl |  Obj  Depth IntInf | Incumbent    BestBd   Gap | It/Node Time

     0     0 38168.1454    0   11          - 38168.1454      -     -    0s
     0     0 299897.295    0  619          - 299897.295      -     -    1s
     0     0 300118.700    0  612          - 300118.700      -     -    1s
     0     0 525217.577    0  596          - 525217.577      -     -    1s
     0     0 525272.933    0  376          - 525272.933      -     -    1s
     0     0 525644.133    0  228          - 525644.133      -     -    1s
     0     0 525644.459    0  228          - 525644.459      -     -    1s
     0     0 525645.786    0  227          - 525645.786      -     -    1s
     0     0 525648.751    0  227          - 525648.751      -     -    2s
     0     2 525648.751    0  227          - 525648.751      -     -    3s
   324   410 525788.257   57  146          - 525652.215      -  16.0    5s
H  356   301                    525692.92680 525652.215  0.01%  15.4    5s
*  356   301             107    525692.92680 525652.215  0.01%  15.4    5s

Cutting planes:
  Gomory: 7
  Implied bound: 337
  MIR: 159
  Flow cover: 214
  RLT: 2

Explored 425 nodes (26190 simplex iterations) in 5.74 seconds (7.07 work units)
Thread count was 4 (of 128 available processors)

Solution count 2: 525693 525693 

Optimal solution found (tolerance 1.00e-03)
Warning: max constraint violation (4.1612e-08) exceeds tolerance
Best objective 5.256929267958e+05, best bound 5.256522151083e+05, gap 0.0077%
